&CONTROL
  calculation = 'md',
  restart_mode = 'restart',
  prefix = 'zrb2-slab-001-aimd-3000K',
  outdir = './tmp',
  pseudo_dir = '/home/cganley2/qe-data/pseudopotentials/SSSP_1.3.0_PBE_precision',
  nstep = 6000,    ! number of MD steps
  dt = 20,
  tprnfor = .true.,
  tstress = .true.,
  max_seconds = 150000,
/

&SYSTEM
  ibrav = 0,
  nat = 145,
  ntyp = 3,
  ecutwfc = 50,
  ecutrho = 400,
  occupations = 'smearing',
  smearing = 'gaussian',
  degauss = 0.01,
/

&ELECTRONS
  conv_thr = 1.0d-6,
  mixing_beta = 0.7,
  mixing_mode = 'local-TF',
/

&IONS
  ion_dynamics = 'verlet',
  ion_temperature = 'berendsen',
  tempw = 3000,
  tolp = 250,
/

ATOMIC_SPECIES
Zr 91.224 Zr.pbe-spn-kjpaw_psl.1.0.0.UPF
B  10.81 B.pbe-n-kjpaw_psl.1.0.0.UPF
O 15.999 O.pbe-n-kjpaw_psl.0.1.UPF

CELL_PARAMETERS angstrom
12.72196148 0.00000000 0.00000000
-6.360980739999996 11.017541827647074 0.00000000
0.00000000 0.00000000 28.86371

ATOMIC_POSITIONS angstrom
Zr	0.00000000	0.00000000	1.00000000
B	1.59024634	0.91812914	2.68594567
B	-0.00000002	1.83625830	2.68594567
Zr	0.00000000	0.00000000	4.45545333
B	1.59024667	0.91812933	6.23190216
B	-0.00000002	1.83625868	6.23190216
Zr	0.00000000	0.00000000	8.03747410
B	1.59024474	0.91812821	9.67990478
B	-0.00000002	1.83625644	9.67990478
Zr	-1.59024380	2.75438307	1.00000175
B	0.00000002	3.67251553	2.68594625
B	-1.59024547	4.59064343	2.68594728
Zr	-1.59024600	2.75438689	4.45545539
B	0.00000002	3.67251553	6.23190257
B	-1.59024583	4.59064383	6.23190317
Zr	-1.59024511	2.75438534	8.03747512
B	0.00000002	3.67251159	9.67990471
B	-1.59024602	4.59063946	9.67990551
Zr	-3.18049037	5.50877091	1.00000287
B	-1.59024492	6.42689953	2.68594676
B	-3.18048967	7.34502716	2.68594728
Zr	-3.18049037	5.50877091	4.45545681
B	-1.59024462	6.42689971	6.23190311
B	-3.18048950	7.34502665	6.23190317
Zr	-3.18049037	5.50877091	8.03747719
B	-1.59024564	6.42689912	9.67990426
B	-3.18049338	7.34502867	9.67990551
Zr	-4.77073693	8.26315876	1.00000175
B	-3.18048896	9.18128405	2.68594625
B	-4.77073443	10.09941269	2.68594567
Zr	-4.77073473	8.26315494	4.45545539
B	-3.18048896	9.18128405	6.23190257
B	-4.77073410	10.09941250	6.23190216
Zr	-4.77073562	8.26315649	8.03747512
B	-3.18049238	9.18128602	9.67990471
B	-4.77073603	10.09941362	9.67990478
Zr	3.18048761	0.00000000	1.00000175
B	4.77073656	0.91812874	2.68594728
B	3.18049174	1.83625778	2.68594625
Zr	3.18049202	0.00000000	4.45545539
B	4.77073709	0.91812863	6.23190317
B	3.18049174	1.83625778	6.23190257
Zr	3.18049023	0.00000000	8.03747512
B	4.77073340	0.91812628	9.67990551
B	3.18048832	1.83625581	9.67990471
Zr	1.59024381	2.75438307	1.00000175
B	3.18049111	3.67251466	2.68594728
B	1.59024544	4.59064343	2.68594728
Zr	1.59024601	2.75438689	4.45545539
B	3.18049128	3.67251517	6.23190317
B	1.59024580	4.59064383	6.23190317
Zr	1.59024512	2.75438534	8.03747512
B	3.18048740	3.67251315	9.67990551
B	1.59024599	4.59063946	9.67990551
Zr	0.00000000	5.50877133	1.00000307
B	1.59024495	6.42689953	2.68594676
B	-0.00000002	7.34502789	2.68594767
Zr	0.00000000	5.50877121	4.45545681
B	1.59024465	6.42689971	6.23190311
B	-0.00000002	7.34502789	6.23190377
Zr	0.00000000	5.50876726	8.03747725
B	1.59024567	6.42689912	9.67990426
B	-0.00000002	7.34502789	9.67990592
Zr	-1.59024481	8.26315616	1.00000307
B	0.00000002	9.18128456	2.68594676
B	-1.59024421	10.09941309	2.68594728
Zr	-1.59024492	8.26315622	4.45545681
B	0.00000002	9.18128421	6.23190311
B	-1.59024368	10.09941320	6.23190317
Zr	-1.59024834	8.26315819	8.03747725
B	0.00000002	9.18128539	9.67990426
B	-1.59024737	10.09941555	9.67990551
Zr	6.36098074	0.00000000	1.00000287
B	7.95122495	0.91812874	2.68594728
B	6.36098072	1.83625727	2.68594676
Zr	6.36098074	0.00000000	4.45545681
B	7.95122442	0.91812863	6.23190317
B	6.36098072	1.83625762	6.23190311
Zr	6.36098074	0.00000000	8.03747719
B	7.95122811	0.91812628	9.67990551
B	6.36098072	1.83625644	9.67990426
Zr	4.77073592	2.75438567	1.00000307
B	6.36098076	3.67251393	2.68594767
B	4.77073579	4.59064230	2.68594676
Zr	4.77073581	2.75438561	4.45545681
B	6.36098076	3.67251393	6.23190377
B	4.77073609	4.59064212	6.23190311
Zr	4.77073239	2.75438364	8.03747725
B	6.36098076	3.67251393	9.67990592
B	4.77073507	4.59064271	9.67990426
Zr	3.18049037	5.50877091	1.00000287
B	4.77073530	6.42689840	2.68594728
B	3.18048963	7.34502716	2.68594728
Zr	3.18049037	5.50877091	4.45545681
B	4.77073494	6.42689800	6.23190317
B	3.18048946	7.34502665	6.23190317
Zr	3.18049037	5.50877091	8.03747719
B	4.77073475	6.42690237	9.67990551
B	3.18049334	7.34502867	9.67990551
Zr	1.59024482	8.26315616	1.00000307
B	3.18048900	9.18128405	2.68594625
B	1.59024418	10.09941309	2.68594728
Zr	1.59024493	8.26315622	4.45545681
B	3.18048900	9.18128405	6.23190257
B	1.59024365	10.09941320	6.23190317
Zr	1.59024835	8.26315819	8.03747725
B	3.18049242	9.18128602	9.67990471
B	1.59024734	10.09941555	9.67990551
Zr	9.54147387	0.00000000	1.00000175
B	11.13171517	0.91812914	2.68594567
B	9.54146970	1.83625778	2.68594625
Zr	9.54146946	0.00000000	4.45545539
B	11.13171484	0.91812933	6.23190216
B	9.54146970	1.83625778	6.23190257
Zr	9.54147125	0.00000000	8.03747512
B	11.13171677	0.91812821	9.67990478
B	9.54147312	1.83625581	9.67990471
Zr	7.95122556	2.75438567	1.00000307
B	9.54147041	3.67251466	2.68594728
B	7.95122566	4.59064230	2.68594676
Zr	7.95122567	2.75438561	4.45545681
B	9.54147024	3.67251517	6.23190317
B	7.95122536	4.59064212	6.23190311
Zr	7.95122909	2.75438364	8.03747725
B	9.54147412	3.67251315	9.67990551
B	7.95122638	4.59064271	9.67990426
Zr	6.36098074	5.50877049	1.00000307
B	7.95122621	6.42689840	2.68594728
B	6.36098072	7.34502629	2.68594625
Zr	6.36098074	5.50877061	4.45545681
B	7.95122657	6.42689800	6.23190317
B	6.36098072	7.34502629	6.23190257
Zr	6.36098074	5.50877456	8.03747725
B	7.95122676	6.42690237	9.67990551
B	6.36098072	7.34503023	9.67990471
Zr	4.77073694	8.26315876	1.00000175
B	6.36098076	9.18128353	2.68594567
B	4.77073440	10.09941269	2.68594567
Zr	4.77073474	8.26315494	4.45545539
B	6.36098076	9.18128315	6.23190216
B	4.77073407	10.09941250	6.23190216
Zr	4.77073563	8.26315649	8.03747512
B	6.36098076	9.18128539	9.67990478
B	4.77073600	10.09941362	9.67990478
O 6.00000000  5.00000000  12.00000000

K_POINTS automatic
2 2 1 0 0 0
